50
    48    71    70    49     6    13     3    94    24    45    27    47    93    63     3    38    67    55     5    38    68     1    25    57    83    67    71    47    64    15    65   100    30    93    46    50    63    44    67    70    13    97    99    73    96    76    26    16    91    92
     1     7     7    10     2     4    10     7     2     7    10    10     3     5    10     3     2     3     4     7     1    10     4     4     7     7     4     6     1     9     5     9    10     9     1     2     2     8     1     5     6     4    10    10    10    10     7     2     9    10
  1578  1210  2493  1867  1489   987  1567   594  2352  2437  1362  1300  2020  1721  1392  2616  1955  1851  1229  1470  1449  1710  1626   744  1405  1041  2463   952   690  2244  1739  1508  2049  2591  2037   918  2060  2411  1001  2316  1314  1565  2051   875   753  1238   611  2112  1211  2545
